Ordonnancement/plne/source/petit_instance/4job/4job_19.dat
data;
param nombreJob := 4;
param nombreRessource := 3;
param duree := 1 2 2 6 3 2 4 4;
param capaciteRessource := 1 4 2 13 3 17;
param besoinRessource : 1 2 3 :=
                    1   2 4 3
                    2   2 5 3
                    3   2 7 1
                    4   1 6 4;
end;

