Ordonnancement/plne/source/glpk_resultat/4job/4job_19.sol
Problem:    glpsolRcpsp
Rows:       151
Columns:    57 (56 integer, 56 binary)
Non-zeros:  745
Status:     INTEGER OPTIMAL
Objective:  obj = 8 (MINimum)

   No.   Row name        Activity     Lower bound   Upper bound
------ ------------    ------------- ------------- -------------
     1 periode[1]                  2             2             = 
     2 periode[2]                  6             6             = 
     3 periode[3]                  2             2             = 
     4 periode[4]                  4             4             = 
     5 complet[1,1]                0                           2 
     6 complet[1,2]                2                           2 
     7 complet[1,3]                0                           2 
     8 complet[1,4]                0                           2 
     9 complet[1,5]                0                           2 
    10 complet[1,6]                0                           2 
    11 complet[1,7]                0                           2 
    12 complet[1,8]                0                           2 
    13 complet[1,9]                0                           2 
    14 complet[1,10]
                                   0                           2 
    15 complet[1,11]
                                   0                           2 
    16 complet[1,12]
                                   0                           2 
    17 complet[2,1]                4                           6 
    18 complet[2,2]                3                           6 
    19 complet[2,3]                2                           6 
    20 complet[2,4]                1                           6 
    21 complet[2,5]                0                           6 
    22 complet[2,6]                6                           6 
    23 complet[2,7]                0                           6 
    24 complet[2,8]                0                           6 
    25 complet[2,9]                0                           6 
    26 complet[2,10]
                                   0                           6 
    27 complet[2,11]
                                   0                           6 
    28 complet[2,12]
                                   0                           6 
    29 complet[3,1]                2                           2 
    30 complet[3,2]                2                           2 
    31 complet[3,3]                2                           2 
    32 complet[3,4]                2                           2 
    33 complet[3,5]                2                           2 
    34 complet[3,6]               -1                           2 
    35 complet[3,7]                0                           2 
    36 complet[3,8]                2                           2 
    37 complet[3,9]                0                           2 
    38 complet[3,10]
                                   0                           2 
    39 complet[3,11]
                                   0                           2 
    40 complet[3,12]
                                   0                           2 
    41 complet[4,1]                4                           4 
    42 complet[4,2]               -1                           4 
    43 complet[4,3]                2                           4 
    44 complet[4,4]                1                           4 
    45 complet[4,5]                0                           4 
    46 complet[4,6]                4                           4 
    47 complet[4,7]                0                           4 
    48 complet[4,8]                0                           4 
    49 complet[4,9]                0                           4 
    50 complet[4,10]
                                   0                           4 
    51 complet[4,11]
                                   0                           4 
    52 complet[4,12]
                                   0                           4 
    53 cmax[1,1]                   7            -0               
    54 cmax[1,2]                   6            -0               
    55 cmax[1,3]                   8            -0               
    56 cmax[1,4]                   8            -0               
    57 cmax[1,5]                   8            -0               
    58 cmax[1,6]                   8            -0               
    59 cmax[1,7]                   8            -0               
    60 cmax[1,8]                   8            -0               
    61 cmax[1,9]                   8            -0               
    62 cmax[1,10]                  8            -0               
    63 cmax[1,11]                  8            -0               
    64 cmax[1,12]                  8            -0               
    65 cmax[1,13]                  8            -0               
    66 cmax[1,14]                  8            -0               
    67 cmax[2,1]                   7            -0               
    68 cmax[2,2]                   6            -0               
    69 cmax[2,3]                   5            -0               
    70 cmax[2,4]                   4            -0               
    71 cmax[2,5]                   3            -0               
    72 cmax[2,6]                   2            -0               
    73 cmax[2,7]                   8            -0               
    74 cmax[2,8]                   8            -0               
    75 cmax[2,9]                   8            -0               
    76 cmax[2,10]                  8            -0               
    77 cmax[2,11]                  8            -0               
    78 cmax[2,12]                  8            -0               
    79 cmax[2,13]                  8            -0               
    80 cmax[2,14]                  8            -0               
    81 cmax[3,1]                   8            -0               
    82 cmax[3,2]                   8            -0               
    83 cmax[3,3]                   8            -0               
    84 cmax[3,4]                   8            -0               
    85 cmax[3,5]                   8            -0               
    86 cmax[3,6]                   8            -0               
    87 cmax[3,7]                   1            -0               
    88 cmax[3,8]                   0            -0               
    89 cmax[3,9]                   8            -0               
    90 cmax[3,10]                  8            -0               
    91 cmax[3,11]                  8            -0               
    92 cmax[3,12]                  8            -0               
    93 cmax[3,13]                  8            -0               
    94 cmax[3,14]                  8            -0               
    95 cmax[4,1]                   8            -0               
    96 cmax[4,2]                   8            -0               
    97 cmax[4,3]                   5            -0               
    98 cmax[4,4]                   4            -0               
    99 cmax[4,5]                   3            -0               
   100 cmax[4,6]                   2            -0               
   101 cmax[4,7]                   8            -0               
   102 cmax[4,8]                   8            -0               
   103 cmax[4,9]                   8            -0               
   104 cmax[4,10]                  8            -0               
   105 cmax[4,11]                  8            -0               
   106 cmax[4,12]                  8            -0               
   107 cmax[4,13]                  8            -0               
   108 cmax[4,14]                  8            -0               
   109 ressource[1,1]
                                   4                           4 
   110 ressource[1,2]
                                   4                           4 
   111 ressource[1,3]
                                   3                           4 
   112 ressource[1,4]
                                   3                           4 
   113 ressource[1,5]
                                   3                           4 
   114 ressource[1,6]
                                   3                           4 
   115 ressource[1,7]
                                   2                           4 
   116 ressource[1,8]
                                   2                           4 
   117 ressource[1,9]
                                   0                           4 
   118 ressource[1,10]
                                   0                           4 
   119 ressource[1,11]
                                   0                           4 
   120 ressource[1,12]
                                   0                           4 
   121 ressource[1,13]
                                   0                           4 
   122 ressource[1,14]
                                   0                           4 
   123 ressource[2,1]
                                   9                          13 
   124 ressource[2,2]
                                   9                          13 
   125 ressource[2,3]
                                  11                          13 
   126 ressource[2,4]
                                  11                          13 
   127 ressource[2,5]
                                  11                          13 
   128 ressource[2,6]
                                  11                          13 
   129 ressource[2,7]
                                   7                          13 
   130 ressource[2,8]
                                   7                          13 
   131 ressource[2,9]
                                   0                          13 
   132 ressource[2,10]
                                   0                          13 
   133 ressource[2,11]
                                   0                          13 
   134 ressource[2,12]
                                   0                          13 
   135 ressource[2,13]
                                   0                          13 
   136 ressource[2,14]
                                   0                          13 
   137 ressource[3,1]
                                   6                          17 
   138 ressource[3,2]
                                   6                          17 
   139 ressource[3,3]
                                   7                          17 
   140 ressource[3,4]
                                   7                          17 
   141 ressource[3,5]
                                   7                          17 
   142 ressource[3,6]
                                   7                          17 
   143 ressource[3,7]
                                   1                          17 
   144 ressource[3,8]
                                   1                          17 
   145 ressource[3,9]
                                   0                          17 
   146 ressource[3,10]
                                   0                          17 
   147 ressource[3,11]
                                   0                          17 
   148 ressource[3,12]
                                   0                          17 
   149 ressource[3,13]
                                   0                          17 
   150 ressource[3,14]
                                   0                          17 
   151 obj                         8                             

   No. Column name       Activity     Lower bound   Upper bound
------ ------------    ------------- ------------- -------------
     1 x[1,1]       *              1             0             1 
     2 x[1,2]       *              1             0             1 
     3 x[1,3]       *              0             0             1 
     4 x[1,4]       *              0             0             1 
     5 x[1,5]       *              0             0             1 
     6 x[1,6]       *              0             0             1 
     7 x[1,7]       *              0             0             1 
     8 x[1,8]       *              0             0             1 
     9 x[1,9]       *              0             0             1 
    10 x[1,10]      *              0             0             1 
    11 x[1,11]      *              0             0             1 
    12 x[1,12]      *              0             0             1 
    13 x[1,13]      *              0             0             1 
    14 x[1,14]      *              0             0             1 
    15 x[2,1]       *              1             0             1 
    16 x[2,2]       *              1             0             1 
    17 x[2,3]       *              1             0             1 
    18 x[2,4]       *              1             0             1 
    19 x[2,5]       *              1             0             1 
    20 x[2,6]       *              1             0             1 
    21 x[2,7]       *              0             0             1 
    22 x[2,8]       *              0             0             1 
    23 x[2,9]       *              0             0             1 
    24 x[2,10]      *              0             0             1 
    25 x[2,11]      *              0             0             1 
    26 x[2,12]      *              0             0             1 
    27 x[2,13]      *              0             0             1 
    28 x[2,14]      *              0             0             1 
    29 x[3,1]       *              0             0             1 
    30 x[3,2]       *              0             0             1 
    31 x[3,3]       *              0             0             1 
    32 x[3,4]       *              0             0             1 
    33 x[3,5]       *              0             0             1 
    34 x[3,6]       *              0             0             1 
    35 x[3,7]       *              1             0             1 
    36 x[3,8]       *              1             0             1 
    37 x[3,9]       *              0             0             1 
    38 x[3,10]      *              0             0             1 
    39 x[3,11]      *              0             0             1 
    40 x[3,12]      *              0             0             1 
    41 x[3,13]      *              0             0             1 
    42 x[3,14]      *              0             0             1 
    43 x[4,1]       *              0             0             1 
    44 x[4,2]       *              0             0             1 
    45 x[4,3]       *              1             0             1 
    46 x[4,4]       *              1             0             1 
    47 x[4,5]       *              1             0             1 
    48 x[4,6]       *              1             0             1 
    49 x[4,7]       *              0             0             1 
    50 x[4,8]       *              0             0             1 
    51 x[4,9]       *              0             0             1 
    52 x[4,10]      *              0             0             1 
    53 x[4,11]      *              0             0             1 
    54 x[4,12]      *              0             0             1 
    55 x[4,13]      *              0             0             1 
    56 x[4,14]      *              0             0             1 
    57 z                           8                             

Integer feasibility conditions:

KKT.PE: max.abs.err = 0.00e+00 on row 0
        max.rel.err = 0.00e+00 on row 0
        High quality

KKT.PB: max.abs.err = 0.00e+00 on row 0
        max.rel.err = 0.00e+00 on row 0
        High quality

End of output
